# 	open new log file

read_data ${fname}
read_data PE_nc10_cl1000.dat
  orthogonal box = (0 0 0) to (80.0586 80.0586 80.0586)
  1 by 1 by 1 MPI processor grid
  reading atoms ...
  10000 atoms
  scanning bonds ...
  1 = max bonds/atom
  scanning angles ...
  1 = max angles/atom
  scanning dihedrals ...
  1 = max dihedrals/atom
  reading bonds ...
  9990 bonds
  reading angles ...
  9980 angles
  reading dihedrals ...
  9970 dihedrals
  2 = max # of 1-2 neighbors
  2 = max # of 1-3 neighbors
  4 = max # of 1-4 neighbors
  6 = max # of special neighbors
  special bonds CPU = 0.0201474 secs
  read_data CPU = 0.211113 secs
# 	Read in a data file containing information LAMMPS needs to run a simulation

##################################################################

# 			Dreiding potential information
neighbor	0.4 bin
neigh_modify	every 10 one 10000
bond_style      harmonic
bond_coeff	1 350 1.53
angle_style     harmonic
angle_coeff	1 60 109.5
dihedral_style	multi/harmonic
dihedral_coeff	1 1.73 -4.49 0.776 6.99 0.0
pair_style	lj/cut 10.5
pair_coeff	1 1 0.112 4.01 10.5

#####################################################
# 	Equilibration Stage 1 (Langevin dynamics at 500 K)

velocity all create 500.0 1231
# 	generates an ensemble of velocities using a random number
# 	generator with the specified seed as the specified temperature
# 	velocity group-ID style args keyword value ...
# 	create args = temp seed
#      	temp = temperature value (temperature units)
#      	seed = random # seed (positive integer)
#      	slychajnoe nachalnoe chislo

fix 1 all nve/limit 0.05
# 	Set a fix that will be applied to a group of atoms
# 	fix ID group-ID style args
#    	ID = user-assigned name for the fix
#    	group-ID = ID of the group of atoms to apply the fix to
#    	style = one of a long list of possible style names (see below)
#    	args = arguments used by a particular style
# 	nve/limit - NVE with limited step length

fix 2 all langevin 500.0 500.0 10.0 904297
# 	langevin - Langevin temperature control
# 	fix ID group-ID langevin Tstart Tstop damp seed keyword values ...
# 	Tstart,Tstop = desired temperature at start/end of run (temperature units)
# 	Tstart can be a variable (see below)
# 	damp = damping parameter (time units)
# 	seed = random number seed to use for white noise (positive integer)
# 	zero or more keyword/value pairs may be appended

thermo_style	custom step temp press
# 	Set the style and content for printing thermodynamic data to the screen and log file.
# 	thermo_style style args
# 	style = one or multi or custom
#      	custom args = list of keywords
#       step = timestep
#       temp = temperature
#       press = pressure

thermo   100
# 	Compute and print thermodynamic info (e.g. temperature, energy, pressure) on timesteps
# 	that are a multiple of N and at the beginning and end of a simulation.
# 	A value of 0 will only print thermodynamics at the beginning and end.
# 	thermo N
# 	N = output thermodynamics every N timesteps
# 	N can be a variable

timestep 1
# 	Set the timestep size for subsequent molecular dynamics simulations
# 	timestep dt
# 	dt = timestep size (time units)

run 1000
Neighbor list info ...
  update every 10 steps, delay 10 steps, check yes
  max neighbors/atom: 10000, page size: 100000
  master list distance cutoff = 10.9
  ghost atom cutoff = 10.9
  binsize = 5.45, bins = 15 15 15
  1 neighbor lists, perpetual/occasional/extra = 1 0 0
  (1) pair lj/cut, perpetual
      attributes: half, newton on
      pair build: half/bin/newton
      stencil: half/bin/3d/newton
      bin: standard
WARNING: Inconsistent image flags (../domain.cpp:812)
Per MPI rank memory allocation (min/avg/max) = 18.66 | 18.66 | 18.66 Mbytes
Step Temp Press 
       0          500 1.8475472e+08 
     100    810.18213     67833.12 
     200    557.64949    39410.847 
     300    527.68462    28726.514 
     400    511.36469    22834.291 
     500     513.4912    19010.281 
     600    508.24463    16498.896 
     700    496.01334    14314.538 
     800     497.6119    12930.567 
     900    498.92756    12269.401 
    1000    502.06566    10508.875 
Loop time of 25.6742 on 1 procs for 1000 steps with 10000 atoms

Performance: 3.365 ns/day, 7.132 hours/ns, 38.950 timesteps/s
98.3% CPU use with 1 MPI tasks x 1 OpenMP threads

MPI task timing breakdown:
Section |  min time  |  avg time  |  max time  |%varavg| %total
---------------------------------------------------------------
Pair    | 17.878     | 17.878     | 17.878     |   0.0 | 69.63
Bond    | 3.0054     | 3.0054     | 3.0054     |   0.0 | 11.71
Neigh   | 3.7046     | 3.7046     | 3.7046     |   0.0 | 14.43
Comm    | 0.18918    | 0.18918    | 0.18918    |   0.0 |  0.74
Output  | 0.017216   | 0.017216   | 0.017216   |   0.0 |  0.07
Modify  | 0.82135    | 0.82135    | 0.82135    |   0.0 |  3.20
Other   |            | 0.05838    |            |       |  0.23

Nlocal:    10000 ave 10000 max 10000 min
Histogram: 1 0 0 0 0 0 0 0 0 0
Nghost:    12772 ave 12772 max 12772 min
Histogram: 1 0 0 0 0 0 0 0 0 0
Neighs:    802653 ave 802653 max 802653 min
Histogram: 1 0 0 0 0 0 0 0 0 0

Total # of neighbors = 802653
Ave neighs/atom = 80.2653
Ave special neighs/atom = 5.988
Neighbor list builds = 91
Dangerous builds = 82
# 	run N keyword values ...
# 	N = # of timesteps
# 	A value of N = 0 is acceptable; only the thermodynamics of the
# 	system are computed and printed without taking a timestep.


unfix 1
unfix 2
# 	Delete a fix that was previously defined with a fix command.

write_restart 	restart.${simname}.dreiding1
write_restart 	restart.PE_nc10_cl1000.dreiding1
#	write_restart file keyword value ...
# 	Write a binary restart file of the current state of the simulation.

#####################################################
# 	Equilibration Stage 2 (NPT dynamics at 500 K)

fix 1 all npt temp 500.0 500.0 50 iso 0 0 1000 drag 2
# 	npt - constant NPT time integration via Nose/Hoover
# 	These commands perform time integration on Nose-Hoover style non-Hamiltonian
# 	equations of motion which are designed to generate positions and velocities
# 	sampled from the isothermal-isobaric (npt).
# 	This updates the position and velocity for atoms in the group each timestep.
# 	The thermostat parameters for fix styles npt is specified
# 	using the temp keyword.
#       temp values = Tstart Tstop Tdamp
#       Tdamp = temperature damping parameter (time units)
# 		The keyword iso means couple all 3 diagonal components together when pressure
# 	is computed (hydrostatic pressure), and dilate/contract the dimensions together.
# 	iso or aniso or tri values = Pstart Pstop Pdamp
#       Pstart,Pstop = scalar external pressure at start/end of run (pressure units)
#       Pdamp = pressure damping parameter (time units)
# 	drag value = Df
#       Df = drag factor added to barostat/thermostat (0.0 = no drag)

fix  2 all momentum 1 linear 1 1 1
# 	momentum - zero the linear and/or angular momentum of a group of atoms
# 	Zero the linear and/or angular momentum of the group of atoms every
# 	N timesteps by adjusting the velocities of the atoms.
# 	If the linear keyword is used, the linear momentum is zeroed by subtracting
# 	the center-of-mass velocity of the group from each atom.
# 	This does not change the relative velocity of any pair of atoms.
# 	One or more dimensions can be excluded from this operation
# 	by setting the corresponding flag to 0.

thermo_style	custom step temp press
thermo          100
timestep	0.5
reset_timestep	0
# 	Set the timestep counter to the specified value.
# 	This command normally comes after the timestep has been set
# 	by reading a restart file via the read_restart command,
# 	or a previous simulation advanced the timestep.

run		500
WARNING: Inconsistent image flags (../domain.cpp:812)
Per MPI rank memory allocation (min/avg/max) = 18.66 | 18.66 | 18.66 Mbytes
Step Temp Press 
       0    502.06566    10508.875 
     100    563.12346    7478.3748 
     200     637.3537    5358.1542 
     300    657.20413    2802.9874 
     400    655.02305    2205.6323 
     500     639.0489    1097.8278 
Loop time of 14.0274 on 1 procs for 500 steps with 10000 atoms

Performance: 1.540 ns/day, 15.586 hours/ns, 35.645 timesteps/s
92.1% CPU use with 1 MPI tasks x 1 OpenMP threads

MPI task timing breakdown:
Section |  min time  |  avg time  |  max time  |%varavg| %total
---------------------------------------------------------------
Pair    | 9.3805     | 9.3805     | 9.3805     |   0.0 | 66.87
Bond    | 2.2543     | 2.2543     | 2.2543     |   0.0 | 16.07
Neigh   | 1.7642     | 1.7642     | 1.7642     |   0.0 | 12.58
Comm    | 0.12233    | 0.12233    | 0.12233    |   0.0 |  0.87
Output  | 0.0096057  | 0.0096057  | 0.0096057  |   0.0 |  0.07
Modify  | 0.45336    | 0.45336    | 0.45336    |   0.0 |  3.23
Other   |            | 0.04304    |            |       |  0.31

Nlocal:    10000 ave 10000 max 10000 min
Histogram: 1 0 0 0 0 0 0 0 0 0
Nghost:    12244 ave 12244 max 12244 min
Histogram: 1 0 0 0 0 0 0 0 0 0
Neighs:    676306 ave 676306 max 676306 min
Histogram: 1 0 0 0 0 0 0 0 0 0

Total # of neighbors = 676306
Ave neighs/atom = 67.6306
Ave special neighs/atom = 5.988
Neighbor list builds = 38
Dangerous builds = 27
unfix 1
unfix 2
write_restart 	restart.${simname}.dreiding2
write_restart 	restart.PE_nc10_cl1000.dreiding2

#####################################################
# 	Equilibration Stage 3 (NPT dynamics from 500 K --> 100 K)
fix		1 all npt temp 500 100 50 iso 0 0 1000 drag 2
fix		2 all momentum 1 linear 1 1 1
thermo_style	custom step temp press
thermo          10
timestep	0.5
reset_timestep 	0
run		500
WARNING: Inconsistent image flags (../domain.cpp:812)
Per MPI rank memory allocation (min/avg/max) = 18.66 | 18.66 | 18.66 Mbytes
Step Temp Press 
       0     639.0489    1097.8278 
      10    639.05711    1488.7346 
      20    636.35366     1646.697 
      30    634.60277    1463.3612 
      40    631.25357    1110.4009 
      50    625.23423    893.65003 
      60    624.87644    999.12595 
      70    623.21685    1259.5593 
      80    616.38044    1404.3217 
      90    617.07187    1349.3331 
     100    615.88079    1093.3346 
     110    607.31877    785.81081 
     120     606.9298    661.82661 
     130    603.67993    692.67043 
     140    595.73053     774.0816 
     150    594.08461    832.65718 
     160    589.30136    742.20036 
     170    585.08716    539.50254 
     180    581.26006    329.36589 
     190    573.71023    202.61512 
     200    572.51774    240.27115 
     210    566.45395    328.80332 
     220    557.58432     389.7902 
     230    557.83245    414.63906 
     240    551.94803     318.4984 
     250    544.38284    189.11922 
     260    545.24611    159.13075 
     270    541.36121    185.92608 
     280    534.46211     241.8226 
     290    530.24922    304.39467 
     300    525.24352    317.05598 
     310    518.70854     261.0357 
     320    510.94128    156.97372 
     330    507.33818    80.024884 
     340    503.87813    59.677227 
     350     494.8047     85.03143 
     360    491.64262    177.93302 
     370      490.028    243.07268 
     380    480.31902    181.96203 
     390    475.23296    80.116106 
     400    471.70539   -6.7854456 
     410    462.22388   -58.822217 
     420    455.58892    -18.93156 
     430    450.75807    69.343199 
     440     443.0394    107.29633 
     450    435.34783     60.94454 
     460    429.23205   -42.297691 
     470    422.81819   -144.16645 
     480    414.44995   -169.45165 
     490    406.29892   -68.812574 
     500    400.58856    96.409736 
Loop time of 12.747 on 1 procs for 500 steps with 10000 atoms

Performance: 1.695 ns/day, 14.163 hours/ns, 39.225 timesteps/s
93.0% CPU use with 1 MPI tasks x 1 OpenMP threads

MPI task timing breakdown:
Section |  min time  |  avg time  |  max time  |%varavg| %total
---------------------------------------------------------------
Pair    | 8.5845     | 8.5845     | 8.5845     |   0.0 | 67.34
Bond    | 2.3689     | 2.3689     | 2.3689     |   0.0 | 18.58
Neigh   | 1.0299     | 1.0299     | 1.0299     |   0.0 |  8.08
Comm    | 0.13013    | 0.13013    | 0.13013    |   0.0 |  1.02
Output  | 0.092094   | 0.092094   | 0.092094   |   0.0 |  0.72
Modify  | 0.49178    | 0.49178    | 0.49178    |   0.0 |  3.86
Other   |            | 0.04974    |            |       |  0.39

Nlocal:    10000 ave 10000 max 10000 min
Histogram: 1 0 0 0 0 0 0 0 0 0
Nghost:    12083 ave 12083 max 12083 min
Histogram: 1 0 0 0 0 0 0 0 0 0
Neighs:    607316 ave 607316 max 607316 min
Histogram: 1 0 0 0 0 0 0 0 0 0

Total # of neighbors = 607316
Ave neighs/atom = 60.7316
Ave special neighs/atom = 5.988
Neighbor list builds = 25
Dangerous builds = 0
unfix 1
unfix 2
write_restart 	restart.${simname}.dreiding3
write_restart 	restart.PE_nc10_cl1000.dreiding3

#####################################################
# 	Equilibration Stage 4 (NPT dynamics at 100 K)
fix		1 all npt temp 100 100 50 iso 0 0 1000 drag 2
fix		2 all momentum 1 linear 1 1 1
thermo_style	custom step temp press epair ebond eangle edihed pxx pyy pzz lx ly lz
thermo          10
timestep	0.5
reset_timestep 	0
run		500
WARNING: Inconsistent image flags (../domain.cpp:812)
Per MPI rank memory allocation (min/avg/max) = 18.66 | 18.66 | 18.66 Mbytes
Step Temp Press E_pair E_bond E_angle E_dihed Pxx Pyy Pzz Lx Ly Lz 
       0    400.58856    96.409736   -8063.9638    2979.5396     3568.947    9014.2746   -35.219108    195.69232      128.756     83.34902     83.34902     83.34902 
      10    397.01692    225.97529   -8066.8538     2980.563    3492.1081    8961.9919     40.71602    420.02679    217.18305     83.34971     83.34971     83.34971 
      20    389.54679    156.48068    -8064.608    2983.9712    3466.1323    8906.4704    141.67359    184.78651    142.98195     83.35222     83.35222     83.35222 
      30     384.9616   -13.426341   -8056.5717    2831.6929    3467.7891    8847.9398    176.17293   -199.63783   -16.814131    83.355979    83.355979    83.355979 
      40     377.3139   -152.41387   -8048.0767    2764.3572    3475.0986    8785.4738    75.029722   -368.07529   -164.19605    83.359565    83.359565    83.359565 
      50     367.1998   -140.13818   -8045.9339     2827.611    3443.0912    8719.7646   -38.012359   -169.17371   -213.22846    83.361858    83.361858    83.361858 
      60    363.12287    30.695231   -8050.7708    2751.4016     3385.294    8655.0575     10.00582    185.17036   -103.09048    83.363003    83.363003    83.363003 
      70    358.24254    169.32454   -8056.4685    2685.2889    3342.9808    8595.1038    202.57632    264.25682    41.140473    83.364371    83.364371    83.364371 
      80    350.93566    131.10467   -8058.0817     2707.353    3287.5317    8538.2716     367.8534   -9.2814991    34.742101    83.367063    83.367063    83.367063 
      90    347.06925   -54.199062   -8056.3048    2666.7103    3197.0893    8482.2018     284.1614   -331.06447   -115.69412    83.370742    83.370742    83.370742 
     100    342.93079   -264.53326   -8053.8027    2617.5634    3125.4438    8429.3957    -69.75773   -433.18387   -290.65817    83.373849    83.373849    83.373849 
     110    335.95736   -338.76697   -8050.9491     2602.041    3106.8103    8383.0642   -378.70442   -276.44149   -361.15499    83.374675    83.374675    83.374675 
     120    330.41447   -200.02721   -8048.2541    2526.5265    3109.8304    8342.2254   -339.56576   -27.778354   -232.73751    83.372676    83.372676    83.372676 
     130    326.15333    20.336183   -8048.4694    2440.7239    3093.9588    8302.7519   -4.6353657    73.157801   -7.5138856     83.36903     83.36903     83.36903 
     140    320.32612    103.49827    -8051.793    2440.2196    3054.1132     8259.763    241.29712   -34.583539    103.78123    83.365532    83.365532    83.365532 
     150    315.14687   -21.480907   -8054.3259    2444.6493    3005.2854     8209.461    97.907578   -188.40716    26.056862    83.362852    83.362852    83.362852 
     160    311.43533   -233.91559   -8054.2097     2415.827    2957.8725    8151.3603   -267.23708   -252.22292   -182.28678     83.35997     83.35997     83.35997 
     170    307.73555    -343.7372   -8052.9515    2379.1508    2926.0043    8089.5075   -453.54396   -219.02495   -358.64268    83.355172    83.355172    83.355172 
     180    304.09569   -257.88503    -8053.906    2333.2083    2907.4567    8029.4014    -278.6011   -163.79989   -331.25411    83.347607    83.347607    83.347607 
     190    300.00247   -67.153791   -8059.1192    2313.6355     2882.077    7973.6672    85.352949   -157.00435   -129.80997    83.338019    83.338019    83.338019 
     200    296.66861    54.390343   -8067.3173    2278.2034    2852.8969    7923.8424    274.33008   -152.75437    41.595325    83.327993    83.327993    83.327993 
     210    293.07813  -0.56491761   -8075.0655    2231.9988    2838.4586    7882.1888    136.11878   -131.32793   -6.4856024     83.31852     83.31852     83.31852 
     220    287.55294    -174.9144   -8081.0036    2232.7198    2831.0709    7848.7405   -103.89035   -196.97436    -223.8785    83.309152    83.309152    83.309152 
     230    284.33763   -290.14974   -8086.7475     2171.664    2817.0641    7820.2157   -181.21556   -346.35931   -342.87435    83.298505    83.298505    83.298505 
     240    281.41614   -259.86371   -8093.2792    2119.6753    2789.6171    7791.9195   -78.068945   -441.77527   -259.74692    83.285671    83.285671    83.285671 
     250    276.43299   -139.17105   -8101.4251    2166.6911    2735.5355    7760.2687    53.759628   -377.02244    -94.25034    83.270932    83.270932    83.270932 
     260    275.07387   -32.583191   -8110.8627    2128.6266    2668.1604    7725.7823    58.242722   -148.96143   -7.0308614    83.255324    83.255324    83.255324 
     270    273.28924   -55.584912   -8120.1228    2075.8461    2629.6079    7691.7795   -87.425246    9.6811383   -89.010627    83.239718    83.239718    83.239718 
     280    268.19274   -191.14413   -8126.6479    2094.9462    2617.6941    7659.6269   -235.84046   -126.20159   -211.39035    83.223938    83.223938    83.223938 
     290    265.69809   -293.36713   -8130.5737    2036.6649    2605.3532    7629.4355   -269.19705   -395.16313   -215.74121    83.206943    83.206943    83.206943 
     300    262.30786   -296.02817   -8134.9864    2002.9999    2596.2552    7601.7414   -213.40045   -504.97607   -169.70798    83.187947    83.187947    83.187947 
     310     257.6201   -216.68435   -8143.0599    2020.6776    2581.6368    7576.2663   -133.30969   -349.80394   -166.93944    83.166999    83.166999    83.166999 
     320     255.6733   -123.00095   -8154.0671    1984.1283    2546.6808     7551.333   -86.415036   -75.218799   -207.36901    83.144833    83.144833    83.144833 
     330    252.97171   -113.05211   -8163.8459    1975.5775    2510.3748    7524.4425   -88.889755    27.217164   -277.48373    83.122261    83.122261    83.122261 
     340    250.22682   -189.88166    -8170.497    1960.6716    2486.3459    7493.3324   -124.18264   -125.01885   -320.44349    83.099424    83.099424    83.099424 
     350    248.42162   -280.95075   -8175.7201     1911.086    2473.6231    7458.4106    -195.6284   -342.42168   -304.80216    83.075768    83.075768    83.075768 
     360    244.92866   -319.22786   -8182.2938    1905.4508    2472.9577    7421.9388   -254.34216   -408.48478   -294.85664    83.050643    83.050643    83.050643 
     370    242.14273   -267.33965    -8190.882    1883.3315    2473.7296    7385.3937   -232.38967    -249.6637   -319.96558     83.02387     83.02387     83.02387 
     380    240.26877   -173.15032   -8199.2383    1842.3349    2468.3254     7349.771   -164.14841   -37.966873   -317.33569    82.996001    82.996001    82.996001 
     390    237.08325   -124.73837   -8206.0002    1854.7142    2449.7224    7315.3304   -139.72334     5.234267   -239.72603    82.967895    82.967895    82.967895 
     400    235.62308   -144.11786   -8212.7632    1845.7542    2404.4469    7280.8959   -212.47552   -109.68398   -110.19408    82.940038    82.940038    82.940038 
     410     235.3898   -203.90352   -8220.6774    1815.1164    2347.4893    7245.1906    -352.5869   -245.25337   -13.870305    82.912344    82.912344    82.912344 
     420    233.22453   -249.41785   -8229.1538    1822.1571    2312.9881     7208.549   -430.01568   -272.58146   -45.656427    82.884409    82.884409    82.884409 
     430    231.50147   -218.40157   -8237.8391    1791.7449      2303.77    7173.4298   -341.87391   -175.40991   -137.92089    82.855983    82.855983    82.855983 
     440    230.38807    -131.2801   -8248.1051     1739.374    2297.6545    7142.5722   -160.77905   -116.52946   -116.53179    82.827414    82.827414    82.827414 
     450    227.18181   -78.731077   -8261.2714    1744.5442    2296.4608    7117.6332   -53.255878   -187.79945    4.8620985    82.799441    82.799441    82.799441 
     460    223.36457   -109.08052   -8275.8901    1748.8073    2315.6849    7097.0815   -119.49943   -295.97694    88.234809    82.772489    82.772489    82.772489 
     470    221.57386   -188.44868    -8288.481    1690.1375    2338.2728    7076.5532   -286.15702   -326.93139    47.742378     82.74631     82.74631     82.74631 
     480    219.43121   -255.97869   -8297.4628    1672.8696     2329.236    7054.6243   -355.20048   -290.60703   -122.12857    82.720275    82.720275    82.720275 
     490    216.27362   -260.96672   -8303.4188    1719.7249    2285.2801    7033.7757   -247.90272   -301.79811   -233.19932    82.693887    82.693887    82.693887 
     500      215.695   -199.53442   -8308.5452    1699.9075     2230.559    7015.3024   -82.302253   -388.16897   -128.13204    82.667171    82.667171    82.667171 
Loop time of 10.6812 on 1 procs for 500 steps with 10000 atoms

Performance: 2.022 ns/day, 11.868 hours/ns, 46.811 timesteps/s
94.8% CPU use with 1 MPI tasks x 1 OpenMP threads

MPI task timing breakdown:
Section |  min time  |  avg time  |  max time  |%varavg| %total
---------------------------------------------------------------
Pair    | 7.0818     | 7.0818     | 7.0818     |   0.0 | 66.30
Bond    | 1.8806     | 1.8806     | 1.8806     |   0.0 | 17.61
Neigh   | 0.87094    | 0.87094    | 0.87094    |   0.0 |  8.15
Comm    | 0.082804   | 0.082804   | 0.082804   |   0.0 |  0.78
Output  | 0.3522     | 0.3522     | 0.3522     |   0.0 |  3.30
Modify  | 0.3832     | 0.3832     | 0.3832     |   0.0 |  3.59
Other   |            | 0.02966    |            |       |  0.28

Nlocal:    10000 ave 10000 max 10000 min
Histogram: 1 0 0 0 0 0 0 0 0 0
Nghost:    12186 ave 12186 max 12186 min
Histogram: 1 0 0 0 0 0 0 0 0 0
Neighs:    603308 ave 603308 max 603308 min
Histogram: 1 0 0 0 0 0 0 0 0 0

Total # of neighbors = 603308
Ave neighs/atom = 60.3308
Ave special neighs/atom = 5.988
Neighbor list builds = 25
Dangerous builds = 0
unfix 1
unfix 2
write_restart 	restart.${simname}.dreiding4
write_restart 	restart.PE_nc10_cl1000.dreiding4

#####################################################
# 	Uniaxial Tensile Deformation
run 0
WARNING: No fixes defined, atoms won't move (../verlet.cpp:52)
WARNING: Inconsistent image flags (../domain.cpp:812)
Per MPI rank memory allocation (min/avg/max) = 18.66 | 18.66 | 18.66 Mbytes
Step Temp Press E_pair E_bond E_angle E_dihed Pxx Pyy Pzz Lx Ly Lz 
     500      215.695   -199.53442   -8308.5452    1699.9075     2230.559    7015.3024   -82.302253   -388.16897   -128.13204    82.667171    82.667171    82.667171 
Loop time of 1.40001e-06 on 1 procs for 0 steps with 10000 atoms

0.0% CPU use with 1 MPI tasks x 1 OpenMP threads

MPI task timing breakdown:
Section |  min time  |  avg time  |  max time  |%varavg| %total
---------------------------------------------------------------
Pair    | 0          | 0          | 0          |   0.0 |  0.00
Bond    | 0          | 0          | 0          |   0.0 |  0.00
Neigh   | 0          | 0          | 0          |   0.0 |  0.00
Comm    | 0          | 0          | 0          |   0.0 |  0.00
Output  | 0          | 0          | 0          |   0.0 |  0.00
Modify  | 0          | 0          | 0          |   0.0 |  0.00
Other   |            | 1.4e-06    |            |       |100.00

Nlocal:    10000 ave 10000 max 10000 min
Histogram: 1 0 0 0 0 0 0 0 0 0
Nghost:    12186 ave 12186 max 12186 min
Histogram: 1 0 0 0 0 0 0 0 0 0
Neighs:    603308 ave 603308 max 603308 min
Histogram: 1 0 0 0 0 0 0 0 0 0

Total # of neighbors = 603308
Ave neighs/atom = 60.3308
Ave special neighs/atom = 5.988
Neighbor list builds = 0
Dangerous builds = 0
variable tmp equal "lx"
variable L0 equal ${tmp}
variable L0 equal 82.6671714882163
variable strain equal "(lx - v_L0)/v_L0"
variable p1 equal "v_strain"
variable p2 equal "-pxx/10000*1.01325"
variable p3 equal "-pyy/10000*1.01325"
variable p4 equal "-pzz/10000*1.01325"
variable p5 equal "lx"
variable p6 equal "ly"
variable p7 equal "lz"
variable p8 equal "temp"
variable t2 equal "epair"
variable t3 equal "ebond"
variable t4 equal "eangle"
variable t5 equal "edihed"
fix 1 all npt temp 100 100 50 y 0 0 1000 z 0 0 1000 drag 2

fix 2 all deform 1 x erate 1e-5 units box remap x
# 	Change the volume and/or shape of the simulation box during a dynamics run.
# 	fix ID group-ID deform N parameter args ... keyword value ...
# 	N = perform box deformation every this many timesteps
#
# 	The erate styles all change the specified dimension of the box via
# 	“constant displacement” which is effectively a “constant engineering strain rate”.
# 	This means the box dimension changes linearly with time from its initial to final value.

fix def1 all print 100 "${p1} ${p2} ${p3} ${p4} ${p5} ${p6} ${p7} ${p8}" file ${simname}.def1.txt screen no
fix def1 all print 100 "${p1} ${p2} ${p3} ${p4} ${p5} ${p6} ${p7} ${p8}" file PE_nc10_cl1000.def1.txt screen no
fix def2 all print 100 "${p1} ${t2} ${t3} ${t4} ${t5}" file ${simname}.def2.txt screen no
fix def2 all print 100 "${p1} ${t2} ${t3} ${t4} ${t5}" file PE_nc10_cl1000.def2.txt screen no
thermo_style	custom step temp pxx pyy pzz lx ly lz epair ebond eangle edihed
thermo          100
timestep	1
reset_timestep	0

# Output strain and stress info to file
variable tmp equal "lx"
variable L0 equal ${tmp}
variable L0 equal 82.6671714882163
variable strain equal "(lx - v_L0)/v_L0"
variable p1 equal "v_strain"
variable p2 equal "-pxx/10000*1.01325"
variable p3 equal "-pyy/10000*1.01325"
variable p4 equal "-pzz/10000*1.01325"
variable p5 equal "lx"
variable p6 equal "ly"
variable p7 equal "lz"
variable p8 equal "temp"
variable t2 equal "epair"
variable t3 equal "ebond"
variable t4 equal "eangle"
variable t5 equal "edihed"
fix def1 all print 100 "${p1} ${p2} ${p3} ${p4} ${p5} ${p6} ${p7} ${p8}" file ${simname}.def1.txt
fix def1 all print 100 "${p1} ${p2} ${p3} ${p4} ${p5} ${p6} ${p7} ${p8}" file PE_nc10_cl1000.def1.txt
fix def2 all print 100 "${p1} ${t2} ${t3} ${t4} ${t5}" file ${simname}.def2.txt screen no screen no
fix def2 all print 100 "${p1} ${t2} ${t3} ${t4} ${t5}" file PE_nc10_cl1000.def2.txt screen no screen no

# Use cfg for AtomEye
dump     id all atom 100 dump.POLcomp.
run		300
WARNING: Inconsistent image flags (../domain.cpp:812)
-1.71904450816098e-16 0.00833927580558819 0.0393312206015838 0.0129829789775297 82.6671714882163 82.6671714882163 82.6671714882163 215.695004140309
Per MPI rank memory allocation (min/avg/max) = 20.05 | 20.05 | 20.05 Mbytes
Step Temp Pxx Pyy Pzz Lx Ly Lz E_pair E_bond E_angle E_dihed 
       0      215.695   -82.302253   -388.16897   -128.13204    82.667171    82.667171    82.667171   -8308.5452    1699.9075     2230.559    7015.3024 
0.000999999999999936 0.0176741057871137 0.00178047969801467 0.0154168707049111 82.7498386597045 82.0838218226018 82.3057182238772 190.199932381725
     100    190.19993   -174.42986   -17.571968   -152.15268    82.749839    82.083822    82.305718   -8457.8385    1448.7037    1948.6829     6593.387 
0.0019999999999997 0.0508409027068681 0.0236792596864485 0.0363352061882596 82.8325058311927 81.3783817315342 81.7674635303794 170.829395201171
     200     170.8294    -501.7607   -233.69612    -358.6006    82.832506    81.378382    81.767464   -8585.8207     1283.149    1750.9315    6185.7201 
0.00299999999999981 0.0453265336151225 0.0341134219860633 0.0395216936138239 82.9151730026809 80.8175972115066 81.1294641870476 153.315700953353
     300     153.3157   -447.33811    -336.6733   -390.04879    82.915173    80.817597    81.129464   -8731.2266    1157.8184    1661.1385    5931.4776 
Loop time of 6.91211 on 1 procs for 300 steps with 10000 atoms

Performance: 3.750 ns/day, 6.400 hours/ns, 43.402 timesteps/s
96.5% CPU use with 1 MPI tasks x 1 OpenMP threads

MPI task timing breakdown:
Section |  min time  |  avg time  |  max time  |%varavg| %total
---------------------------------------------------------------
Pair    | 4.1632     | 4.1632     | 4.1632     |   0.0 | 60.23
Bond    | 1.2139     | 1.2139     | 1.2139     |   0.0 | 17.56
Neigh   | 1.0389     | 1.0389     | 1.0389     |   0.0 | 15.03
Comm    | 0.055779   | 0.055779   | 0.055779   |   0.0 |  0.81
Output  | 0.099915   | 0.099915   | 0.099915   |   0.0 |  1.45
Modify  | 0.32326    | 0.32326    | 0.32326    |   0.0 |  4.68
Other   |            | 0.01716    |            |       |  0.25

Nlocal:    10000 ave 10000 max 10000 min
Histogram: 1 0 0 0 0 0 0 0 0 0
Nghost:    12260 ave 12260 max 12260 min
Histogram: 1 0 0 0 0 0 0 0 0 0
Neighs:    617948 ave 617948 max 617948 min
Histogram: 1 0 0 0 0 0 0 0 0 0

Total # of neighbors = 617948
Ave neighs/atom = 61.7948
Ave special neighs/atom = 5.988
Neighbor list builds = 28
Dangerous builds = 26

unfix 1
unfix 2
unfix def1
unfix def2

print "All done"
All done
Total wall time: 0:01:11
